# LAMMPS Input file generated by Avogadro
# Title

# Initialization
units          real
boundary       p p p
atom_style     full
pair_style hybrid eam lj/cut 10
bond_style harmonic
angle_style harmonic
dihedral_style fourier

read_data      TraPPEoctadecene.lmps
replicate           3 4 4
region myreg block -11.408100 11.256100 -11.089700 11.164300 -11.530100 11.063700
create_atoms            5 random 1 341341 myreg

pair_coeff 1 1 lj/cut 0.1947 3.75
pair_coeff 2 2 lj/cut 0.0914 3.95
pair_coeff 3 3 lj/cut 0.0934 3.73
pair_coeff 4 4 lj/cut 0.1689 3.675
pair_coeff 5 5 eam Cu_u3.eam
pair_coeff 1 5 lj/cut 1.3554 2.961
pair_coeff 2 5 lj/cut 0.9287 3.0389
pair_coeff 3 5 lj/cut 0.9388 2.9531
pair_coeff 4 5 lj/cut 1.2624 2.9312

# Settings

velocity       all create 300 4928459 rot yes mom yes dist gaussian
fix            ensemble all npt temp 300 300 100 iso 1 1 1000.0

timestep       1

# Output
thermo_style custom step temp etotal press vol density
thermo         100000

# Run the simulation
run            1000000
unfix          ensemble
fix            ensemble all npt temp 300 520 100 iso 1 1 1000.0
run            2000000
unfix          ensemble
fix            ensemble all npt temp 520 520 100 iso 1 1 1000.0
run            1000000
write_data     afterMix.data


