# LAMMPS Input file generated by Avogadro
# Title

# Initialization
units          real
boundary       p p p
atom_style     full
pair_style hybrid eam lj/cut 10
bond_style harmonic
angle_style harmonic
dihedral_style fourier

read_data      afterMix.data
replicate           5 5 4

pair_coeff 1 1 lj/cut 0.1947 3.75
pair_coeff 2 2 lj/cut 0.0914 3.95
pair_coeff 3 3 lj/cut 0.0934 3.73
pair_coeff 4 4 lj/cut 0.1689 3.675
pair_coeff 5 5 eam Cu_u3.eam
pair_coeff 1 5 lj/cut 1.3554 2.961
pair_coeff 2 5 lj/cut 0.9287 3.0389
pair_coeff 3 5 lj/cut 0.9388 2.9531
pair_coeff 4 5 lj/cut 1.2624 2.9312


# Settings
dump                    mydmp all xyz 50000 dumpStart.xyz
dump_modify             mydmp element C C C C Cu

fix            ensemble all npt temp 520 520 100 iso 1 1 1000.0

timestep       1

# Output
thermo_style custom step temp etotal press vol density
thermo         10000

# Run the simulation
run            2000000
write_data     after2ns.data


