
# Define some variables
variable	temperature equal 1000.
variable	tempDamp equal 0.1 # approx 0.1 ps
variable	pressure equal 1.
variable	pressureDamp equal 1.0
variable	seed equal 74581

# Setup
units		metal
atom_style	full

# Initial configuration
# Cubic diamond lattice
lattice fcc 3.6258
region          myreg block 0 4 0 4 0 4
create_box      1 myreg
create_atoms    1 region myreg
variable 	mass equal 63.5
mass            1 ${mass}

# More setup options
variable	out_freq equal 500
variable	out_freq2 equal 500
neigh_modify    delay 10 every 1
pair_style 	eam
pair_coeff * * ../../Cu_u3.eam
timestep	0.002
thermo          ${out_freq}
thermo_style 	custom step temp pe press lx

# Perform minimization
minimize 1.0e-2 1.0e-3 100 1000

reset_timestep 	0

# NVT equilibration

fix             1 all nvt temp ${temperature} ${temperature} ${tempDamp}

velocity        all create ${temperature} ${seed} dist gaussian
run             25000

unfix           1

# NPT equilibration
# The symmetry of the crystal structure allows us to use an isotropic barostat

fix             1 all npt iso ${pressure} ${pressure} ${pressureDamp} temp ${temperature} ${temperature} ${tempDamp}

velocity        all create ${temperature} ${seed} dist gaussian
run             25000

unfix           1

# Dump trajectories in dump and dcd format
dump            myDump all atom ${out_freq2} si.lammps-dump-text
dump            myDcdDump all dcd ${out_freq2} out.dcd

# NPT + enhanced sampling

reset_timestep  0

fix             1 all npt iso ${pressure} ${pressure} ${pressureDamp} temp ${temperature} ${temperature} ${tempDamp}
fix		3 all momentum 10000 linear 1 1 1 angular

run             100000

unfix		3
unfix		1

write_data	data.final
