# LAMMPS Input file generated by Avogadro
# Title

# Initialization
units          real
#dimension      3d
boundary       p p p
atom_style     full
pair_style lj/cut 10
bond_style harmonic
angle_style harmonic
dihedral_style fourier
improper_style cvff

read_data      octadecene.lmps
# Groups Definition

 group bond1	id 1 19 2 21 20
 group bond2	id 1 2
 group bond3	id 2 3
 group bond4	id 3 22 4 25 5 26 6 29 7 30 8 33 9 34 10 37 11 38 12 41 13 &
                    42 14 45 15 46 16 49 17 50 18 54 23 24 27 28 31 32 35 36 39 40 43 44 47 48 50 51 52
 group bond5	id 4 5 6 7 8 9 10 11 12 13 14 15 16 17 18

 group angle1   id 1 2 19 20 21
 group angle2   id 3 4 5 6 7 8 9 10 11 12 13 14 15 16 17 18 &
                   22 23 24 25 26 27 28 29 30 31 32 33 34 35 36 37 38 39 40 41 42 43 44 45 46 47 48 49 50 51 52 53 54
 group angle3   id 2 3 22 23
 group angle4   id 3 4 5 6 7 8 9 10 11 12 13 14 15 16 17 18 &
                   22 23 24 25 26 27 28 29 30 31 32 33 34 35 36 37 38 39 40 41 42 43 44 45 46 47 48 49 50 51 52 53 54
 group angle5   id 3 4 5 6 7 8 9 10 11 12 13 14 15 16 17 18
 group angle6   id 2 3 21
group angle7   id 1 19 20
group angle8   id 2 3 4
group angle9   id 1 2 3

# Settings
dump                    mydmp all atom 5000 checkStructureDump.lammpstrj

velocity       all create 298.25 4928459 rot yes mom yes dist gaussian
fix            ensemble all npt temp 298.25 298.25 10 iso 1 1 100.0
compute  1 bond1 bond/local dist
compute  2 bond2 bond/local dist
compute  3 bond3 bond/local dist
compute  4 bond4 bond/local dist
compute  5 bond5 bond/local dist
compute  6 angle1 angle/local theta
compute  7 angle2 angle/local theta
compute  8 angle3 angle/local theta
compute  9 angle4 angle/local theta
compute  10 angle5 angle/local theta
compute  11 angle6 angle/local theta
compute  12 angle7 angle/local theta
compute  13 angle8 angle/local theta
compute  14 angle9 angle/local theta

dump 1  bond1    local 1000 bonds/bond1.dump  c_1
dump 2  bond2    local 1000 bonds/bond2.dump  c_2
dump 3  bond3    local 1000 bonds/bond3.dump  c_3
dump 4  bond4    local 1000 bonds/bond4.dump  c_4
dump 5  bond5    local 1000 bonds/bond5.dump  c_5
dump 6  angle1    local 1000 angles/angle1.dump  c_6
dump 7  angle2    local 1000 angles/angle2.dump  c_7
dump 8  angle3    local 1000 angles/angle3.dump  c_8
dump 9  angle4    local 1000 angles/angle4.dump  c_9
dump 10  angle5    local 1000 angles/angle5.dump  c_10
dump 11  angle6    local 1000 angles/angle6.dump  c_11
dump 12  angle7    local 1000 angles/angle7.dump  c_12
dump 13  angle8    local 1000 angles/angle8.dump  c_13
dump 14  angle9    local 1000 angles/angle9.dump  c_14


timestep            0.1

# Output
thermo_style custom step temp etotal press vol density
thermo         100000

# Run the simulation
run            1000000
