# LAMMPS Input file generated by Avogadro
# Title

# Initialization
units          real
#dimension      3d
boundary       p p p
atom_style     full
pair_style lj/cut 10
bond_style harmonic
angle_style harmonic
dihedral_style fourier

read_data      TraPPEoctadecene.lmps
# Groups Definition

 group bond1	id 2 3 4 5 6 7 8 9 10 11 12 13 14 15 16 17 18
 group bond2	id 1 2

 group angle1   id 1 2 3
 group angle2   id 2 3 4 5 6 7 8 9 10 11 12 13 14 15 16 17 18

# Settings
dump                    mydmp all atom 5000 checkStructureDump.lammpstrj

velocity       all create 298.25 4928459 rot yes mom yes dist gaussian
fix            ensemble all npt temp 298.25 298.25 10 iso 1 1 100.0
compute  1 bond1 bond/local dist
compute  2 bond2 bond/local dist
compute  3 angle1 angle/local theta
compute  4 angle2 angle/local theta


dump 1  bond1    local 1000 bonds/bond1.dump  c_1
dump 2  bond2    local 1000 bonds/bond2.dump  c_2
dump 3  angle1    local 1000 angles/angle1.dump  c_3
dump 4  angle2    local 1000 angles/angle2.dump  c_4


timestep            0.1

# Output
thermo_style custom step temp etotal press vol density
thermo         100000

# Run the simulation
run            1000000
