# LAMMPS Input file generated by Avogadro
# Title

# Initialization
units          real
#dimension      3d
boundary       p p p
atom_style     full
pair_style lj/cut 10
bond_style harmonic
angle_style cosine/squared
dihedral_style harmonic

read_data      coarseGrainedHexadecane.lmps
replicate           10 10 10
# Atom Definition

# Settings
dump                    mydmp all atom 10000 dump.lammpstrj

minimize        1.0e-4 1.0e-6 1000 50-000

velocity       all create 298.25 4928459 rot yes mom yes dist gaussian
fix            ensemble all npt temp 298.25 298.25 100 iso 1 1 1000.0

timestep            1

# Output
thermo_style custom step temp etotal press vol density
thermo         10000

# Run the simulation
run            1000000

