# LAMMPS Input file generated by Avogadro
# Title

# Initialization
units          real
#dimension      3d
boundary       p p p
atom_style     full
pair_style lj/cut 10
bond_style harmonic
angle_style harmonic
dihedral_style fourier
improper_style cvff

read_data      triphenylphosphite.lmps
# Groups Definition

 group bond1	id 1 17 3 10
 group bond2	id 4 5 9 11 16 12 18 19 23
 group bond3	id 4 3 10 11 18 17
 group bond4	id 2 23 5 24 9 28 14 31 15 32 16 33 19 34 20 35 25 6 26 7 27 8 29 12 30 13 36 21 37 22
 group bond5	id 5 6 7 8 9 12 13 14 15 16 19 20 21 22 23

 group angle1   id 4 5 9 11 12 16 18 19 23
 group angle2   id 5 6 7 8 9 12 13 14 15 16 19 20 21 22 23
 group angle3   id 5 6 24 7 25 8 26 9 27 28 12 13 29 14 30 31 15 16 32 33 19 20 21 34 35 22 23 36 37 2 23 22
 group angle4   id 1 3 17 10
 group angle5   id 4 5 24 9 28 11 12 16 33 18 19 34 2 23
 group angle6   id 4 5 6 8 9 11 12 13 15 16 18 19 20 22 23
# Settings
dump                    mydmp all atom 5000 checkStructureDump.lammpstrj

velocity       all create 298.25 4928459 rot yes mom yes dist gaussian
fix            ensemble all npt temp 298.25 298.25 10 iso 1 1 100.0
compute  1 bond1 bond/local dist
compute  2 bond2 bond/local dist
compute  3 bond3 bond/local dist
compute  4 bond4 bond/local dist
compute  5 bond5 bond/local dist
compute  6 angle1 angle/local theta
compute  7 angle2 angle/local theta
compute  8 angle3 angle/local theta
compute  9 angle4 angle/local theta
compute  10 angle5 angle/local theta
compute  11 angle6 angle/local theta

dump 1  bond1    local 1000 bonds/bond1.dump  c_1
dump 2  bond2    local 1000 bonds/bond2.dump  c_2
dump 3  bond3    local 1000 bonds/bond3.dump  c_3
dump 4  bond4    local 1000 bonds/bond4.dump  c_4
dump 5  bond5    local 1000 bonds/bond5.dump  c_5
dump 6  angle1    local 1000 angles/angle1.dump  c_6
dump 7  angle2    local 1000 angles/angle2.dump  c_7
dump 8  angle3    local 1000 angles/angle3.dump  c_8
dump 9  angle4    local 1000 angles/angle4.dump  c_9
dump 10  angle5    local 1000 angles/angle5.dump  c_10
dump 11  angle6    local 1000 angles/angle6.dump  c_11


timestep            0.1

# Output
thermo_style custom step temp etotal press vol density
thermo         100000

# Run the simulation
run            1000000
